
Gurobi 7.5.2 (mac64, Python) logging started Sun Oct 14 22:59:58 2018

Academic license - for non-commercial use only
Optimize a model with 32 rows, 128 columns and 256 nonzeros
Variable types: 0 continuous, 128 integer (128 binary)
Coefficient statistics:
  Matrix range     [1e+00, 1e+00]
  Objective range  [1e+02, 1e+100]
  Bounds range     [1e+00, 1e+00]
  RHS range        [1e+00, 1e+00]
Warning: Model contains large objective coefficients
         Consider reformulating model or setting NumericFocus parameter
         to avoid numerical issues.
Presolve removed 16 rows and 64 columns
Presolve time: 0.01s
Presolved: 16 rows, 64 columns, 128 nonzeros
Variable types: 0 continuous, 64 integer (64 binary)
Found heuristic solution: objective 2000.0000000

Root relaxation: objective 1.800000e+03, 12 iterations, 0.00 seconds

    Nodes    |    Current Node    |     Objective Bounds      |     Work
 Expl Unexpl |  Obj  Depth IntInf | Incumbent    BestBd   Gap | It/Node Time

*    0     0               0    1800.0000000 1800.00000  0.00%     -    0s

Explored 0 nodes (12 simplex iterations) in 0.10 seconds
Thread count was 4 (of 4 available processors)

Solution count 2: 1800 2000 

Optimal solution found (tolerance 1.00e-04)
Best objective 1.800000000000e+03, best bound 1.800000000000e+03, gap 0.0000%
Optimize a model with 32 rows, 128 columns and 256 nonzeros
Variable types: 0 continuous, 128 integer (128 binary)
Coefficient statistics:
  Matrix range     [1e+00, 1e+00]
  Objective range  [1e+02, 1e+100]
  Bounds range     [1e+00, 1e+00]
  RHS range        [1e+00, 1e+00]
Warning: Model contains large objective coefficients
         Consider reformulating model or setting NumericFocus parameter
         to avoid numerical issues.
Presolve removed 16 rows and 64 columns
Presolve time: 0.00s
Presolved: 16 rows, 64 columns, 128 nonzeros
Variable types: 0 continuous, 64 integer (64 binary)
Found heuristic solution: objective 2000.0000000

Root relaxation: objective 1.800000e+03, 12 iterations, 0.00 seconds

    Nodes    |    Current Node    |     Objective Bounds      |     Work
 Expl Unexpl |  Obj  Depth IntInf | Incumbent    BestBd   Gap | It/Node Time

*    0     0               0    1800.0000000 1800.00000  0.00%     -    0s

Explored 0 nodes (12 simplex iterations) in 0.15 seconds
Thread count was 4 (of 4 available processors)

Solution count 2: 1800 2000 

Optimal solution found (tolerance 1.00e-04)
Best objective 1.800000000000e+03, best bound 1.800000000000e+03, gap 0.0000%
Optimize a model with 32 rows, 128 columns and 256 nonzeros
Variable types: 0 continuous, 128 integer (128 binary)
Coefficient statistics:
  Matrix range     [1e+00, 1e+00]
  Objective range  [1e+02, 1e+100]
  Bounds range     [1e+00, 1e+00]
  RHS range        [1e+00, 1e+00]
Warning: Model contains large objective coefficients
         Consider reformulating model or setting NumericFocus parameter
         to avoid numerical issues.
Presolve removed 16 rows and 64 columns
Presolve time: 0.00s
Presolved: 16 rows, 64 columns, 128 nonzeros
Variable types: 0 continuous, 64 integer (64 binary)
Found heuristic solution: objective 2000.0000000

Root relaxation: objective 1.800000e+03, 12 iterations, 0.00 seconds

    Nodes    |    Current Node    |     Objective Bounds      |     Work
 Expl Unexpl |  Obj  Depth IntInf | Incumbent    BestBd   Gap | It/Node Time

*    0     0               0    1800.0000000 1800.00000  0.00%     -    0s

Explored 0 nodes (12 simplex iterations) in 0.10 seconds
Thread count was 4 (of 4 available processors)

Solution count 2: 1800 2000 

Optimal solution found (tolerance 1.00e-04)
Best objective 1.800000000000e+03, best bound 1.800000000000e+03, gap 0.0000%

Gurobi 7.5.2 (mac64, Python) logging started Sat Oct 27 15:15:25 2018

Academic license - for non-commercial use only
Optimize a model with 28 rows, 98 columns and 196 nonzeros
Variable types: 0 continuous, 98 integer (98 binary)
Coefficient statistics:
  Matrix range     [1e+00, 1e+00]
  Objective range  [1e+02, 6e+02]
  Bounds range     [1e+00, 1e+00]
  RHS range        [1e+00, 1e+00]
Found heuristic solution: objective 2800.0000000
Presolve removed 14 rows and 49 columns
Presolve time: 0.01s
Presolved: 14 rows, 49 columns, 98 nonzeros
Found heuristic solution: objective 1000.0000000
Variable types: 0 continuous, 49 integer (49 binary)

Root relaxation: objective 0.000000e+00, 7 iterations, 0.00 seconds

    Nodes    |    Current Node    |     Objective Bounds      |     Work
 Expl Unexpl |  Obj  Depth IntInf | Incumbent    BestBd   Gap | It/Node Time

*    0     0               0       0.0000000    0.00000  0.00%     -    0s

Explored 0 nodes (7 simplex iterations) in 0.33 seconds
Thread count was 4 (of 4 available processors)

Solution count 2: 0 1000 

Optimal solution found (tolerance 1.00e-04)
Best objective 0.000000000000e+00, best bound 0.000000000000e+00, gap 0.0000%
Optimize a model with 28 rows, 102 columns and 196 nonzeros
Variable types: 0 continuous, 102 integer (102 binary)
Coefficient statistics:
  Matrix range     [1e+00, 1e+00]
  Objective range  [1e+02, 1e+100]
  Bounds range     [1e+00, 1e+00]
  RHS range        [1e+00, 1e+00]
Warning: Model contains large objective coefficients
         Consider reformulating model or setting NumericFocus parameter
         to avoid numerical issues.
Presolve removed 14 rows and 53 columns
Presolve time: 0.01s
Presolved: 14 rows, 49 columns, 98 nonzeros
Variable types: 0 continuous, 49 integer (49 binary)
Found heuristic solution: objective 0.0000000

Explored 0 nodes (0 simplex iterations) in 0.08 seconds
Thread count was 4 (of 4 available processors)

Solution count 1: 0 

Optimal solution found (tolerance 1.00e-04)
Best objective 0.000000000000e+00, best bound 0.000000000000e+00, gap 0.0000%
Optimize a model with 28 rows, 98 columns and 196 nonzeros
Variable types: 0 continuous, 98 integer (98 binary)
Coefficient statistics:
  Matrix range     [1e+00, 1e+00]
  Objective range  [1e+02, 6e+02]
  Bounds range     [1e+00, 1e+00]
  RHS range        [1e+00, 1e+00]
Found heuristic solution: objective 2800.0000000
Presolve removed 14 rows and 49 columns
Presolve time: 0.00s
Presolved: 14 rows, 49 columns, 98 nonzeros
Found heuristic solution: objective 1000.0000000
Variable types: 0 continuous, 49 integer (49 binary)

Root relaxation: objective 0.000000e+00, 7 iterations, 0.00 seconds

    Nodes    |    Current Node    |     Objective Bounds      |     Work
 Expl Unexpl |  Obj  Depth IntInf | Incumbent    BestBd   Gap | It/Node Time

*    0     0               0       0.0000000    0.00000  0.00%     -    0s

Explored 0 nodes (7 simplex iterations) in 0.18 seconds
Thread count was 4 (of 4 available processors)

Solution count 2: 0 1000 

Optimal solution found (tolerance 1.00e-04)
Best objective 0.000000000000e+00, best bound 0.000000000000e+00, gap 0.0000%
Optimize a model with 28 rows, 101 columns and 196 nonzeros
Variable types: 0 continuous, 101 integer (101 binary)
Coefficient statistics:
  Matrix range     [1e+00, 1e+00]
  Objective range  [1e+02, 1e+100]
  Bounds range     [1e+00, 1e+00]
  RHS range        [1e+00, 1e+00]
Warning: Model contains large objective coefficients
         Consider reformulating model or setting NumericFocus parameter
         to avoid numerical issues.
Presolve removed 14 rows and 52 columns
Presolve time: 0.01s
Presolved: 14 rows, 49 columns, 98 nonzeros
Variable types: 0 continuous, 49 integer (49 binary)
Found heuristic solution: objective 0.0000000

Explored 0 nodes (0 simplex iterations) in 0.08 seconds
Thread count was 4 (of 4 available processors)

Solution count 1: 0 

Optimal solution found (tolerance 1.00e-04)
Best objective 0.000000000000e+00, best bound 0.000000000000e+00, gap 0.0000%
Optimize a model with 28 rows, 101 columns and 196 nonzeros
Variable types: 0 continuous, 101 integer (101 binary)
Coefficient statistics:
  Matrix range     [1e+00, 1e+00]
  Objective range  [1e+02, 1e+100]
  Bounds range     [1e+00, 1e+00]
  RHS range        [1e+00, 1e+00]
Warning: Model contains large objective coefficients
         Consider reformulating model or setting NumericFocus parameter
         to avoid numerical issues.
Presolve removed 14 rows and 52 columns
Presolve time: 0.00s
Presolved: 14 rows, 49 columns, 98 nonzeros
Variable types: 0 continuous, 49 integer (49 binary)
Found heuristic solution: objective 0.0000000

Explored 0 nodes (0 simplex iterations) in 0.13 seconds
Thread count was 4 (of 4 available processors)

Solution count 1: 0 

Optimal solution found (tolerance 1.00e-04)
Best objective 0.000000000000e+00, best bound 0.000000000000e+00, gap 0.0000%
Optimize a model with 28 rows, 98 columns and 196 nonzeros
Variable types: 0 continuous, 98 integer (98 binary)
Coefficient statistics:
  Matrix range     [1e+00, 1e+00]
  Objective range  [1e+02, 1e+100]
  Bounds range     [1e+00, 1e+00]
  RHS range        [1e+00, 1e+00]
Warning: Model contains large objective coefficients
         Consider reformulating model or setting NumericFocus parameter
         to avoid numerical issues.
Presolve removed 14 rows and 49 columns
Presolve time: 0.01s
Presolved: 14 rows, 49 columns, 98 nonzeros
Variable types: 0 continuous, 49 integer (49 binary)
Found heuristic solution: objective 400.0000000

Root relaxation: cutoff, 6 iterations, 0.00 seconds

    Nodes    |    Current Node    |     Objective Bounds      |     Work
 Expl Unexpl |  Obj  Depth IntInf | Incumbent    BestBd   Gap | It/Node Time

     0     0     cutoff    0       400.00000  400.00000  0.00%     -    0s

Explored 0 nodes (6 simplex iterations) in 0.09 seconds
Thread count was 4 (of 4 available processors)

Solution count 1: 400 

Optimal solution found (tolerance 1.00e-04)
Best objective 4.000000000000e+02, best bound 4.000000000000e+02, gap 0.0000%
Optimize a model with 28 rows, 98 columns and 196 nonzeros
Variable types: 0 continuous, 98 integer (98 binary)
Coefficient statistics:
  Matrix range     [1e+00, 1e+00]
  Objective range  [1e+02, 1e+100]
  Bounds range     [1e+00, 1e+00]
  RHS range        [1e+00, 1e+00]
Warning: Model contains large objective coefficients
         Consider reformulating model or setting NumericFocus parameter
         to avoid numerical issues.
Presolve removed 14 rows and 49 columns
Presolve time: 0.03s
Presolved: 14 rows, 49 columns, 98 nonzeros
Variable types: 0 continuous, 49 integer (49 binary)
Found heuristic solution: objective 1400.0000000

Root relaxation: cutoff, 9 iterations, 0.00 seconds

    Nodes    |    Current Node    |     Objective Bounds      |     Work
 Expl Unexpl |  Obj  Depth IntInf | Incumbent    BestBd   Gap | It/Node Time

     0     0     cutoff    0      1400.00000 1400.00000  0.00%     -    0s

Explored 0 nodes (9 simplex iterations) in 0.11 seconds
Thread count was 4 (of 4 available processors)

Solution count 1: 1400 

Optimal solution found (tolerance 1.00e-04)
Best objective 1.400000000000e+03, best bound 1.400000000000e+03, gap 0.0000%

Gurobi 7.5.2 (mac64, Python) logging started Sun Oct 28 14:49:55 2018

Academic license - for non-commercial use only
Optimize a model with 28 rows, 98 columns and 196 nonzeros
Variable types: 0 continuous, 98 integer (98 binary)
Coefficient statistics:
  Matrix range     [1e+00, 1e+00]
  Objective range  [1e+02, 1e+100]
  Bounds range     [1e+00, 1e+00]
  RHS range        [1e+00, 1e+00]
Warning: Model contains large objective coefficients
         Consider reformulating model or setting NumericFocus parameter
         to avoid numerical issues.
Presolve removed 14 rows and 49 columns
Presolve time: 0.01s
Presolved: 14 rows, 49 columns, 98 nonzeros
Variable types: 0 continuous, 49 integer (49 binary)
Found heuristic solution: objective 3600.0000000

Root relaxation: objective 3.400000e+03, 13 iterations, 0.00 seconds

    Nodes    |    Current Node    |     Objective Bounds      |     Work
 Expl Unexpl |  Obj  Depth IntInf | Incumbent    BestBd   Gap | It/Node Time

*    0     0               0    3400.0000000 3400.00000  0.00%     -    0s

Explored 0 nodes (13 simplex iterations) in 0.10 seconds
Thread count was 4 (of 4 available processors)

Solution count 2: 3400 3600 

Optimal solution found (tolerance 1.00e-04)
Best objective 3.400000000000e+03, best bound 3.400000000000e+03, gap 0.0000%

Gurobi 7.5.2 (mac64, Python) logging started Sat Nov 17 15:04:09 2018

Academic license - for non-commercial use only
Optimize a model with 40 rows, 200 columns and 400 nonzeros
Variable types: 0 continuous, 200 integer (200 binary)
Coefficient statistics:
  Matrix range     [1e+00, 1e+00]
  Objective range  [1e+02, 1e+100]
  Bounds range     [1e+00, 1e+00]
  RHS range        [1e+00, 1e+00]
Warning: Model contains large objective coefficients
         Consider reformulating model or setting NumericFocus parameter
         to avoid numerical issues.
Found heuristic solution: objective 6800.0000000
Presolve removed 20 rows and 103 columns
Presolve time: 0.02s
Presolved: 20 rows, 97 columns, 194 nonzeros
Found heuristic solution: objective 2800.0000000
Variable types: 0 continuous, 97 integer (97 binary)

Root relaxation: objective 0.000000e+00, 10 iterations, 0.00 seconds

    Nodes    |    Current Node    |     Objective Bounds      |     Work
 Expl Unexpl |  Obj  Depth IntInf | Incumbent    BestBd   Gap | It/Node Time

*    0     0               0       0.0000000    0.00000  0.00%     -    0s

Explored 0 nodes (10 simplex iterations) in 0.32 seconds
Thread count was 4 (of 4 available processors)

Solution count 2: 0 2800 

Optimal solution found (tolerance 1.00e-04)
Best objective 0.000000000000e+00, best bound 0.000000000000e+00, gap 0.0000%

Gurobi 7.5.2 (mac64, Python) logging started Sun Nov 18 08:23:09 2018

Academic license - for non-commercial use only
Optimize a model with 40 rows, 200 columns and 400 nonzeros
Variable types: 0 continuous, 200 integer (200 binary)
Coefficient statistics:
  Matrix range     [1e+00, 1e+00]
  Objective range  [1e+02, 1e+100]
  Bounds range     [1e+00, 1e+00]
  RHS range        [1e+00, 1e+00]
Warning: Model contains large objective coefficients
         Consider reformulating model or setting NumericFocus parameter
         to avoid numerical issues.
Presolve removed 20 rows and 100 columns
Presolve time: 0.03s
Presolved: 20 rows, 100 columns, 200 nonzeros
Variable types: 0 continuous, 100 integer (100 binary)
Found heuristic solution: objective 1600.0000000

Root relaxation: cutoff, 12 iterations, 0.00 seconds

    Nodes    |    Current Node    |     Objective Bounds      |     Work
 Expl Unexpl |  Obj  Depth IntInf | Incumbent    BestBd   Gap | It/Node Time

     0     0     cutoff    0      1600.00000 1600.00000  0.00%     -    0s

Explored 0 nodes (12 simplex iterations) in 0.13 seconds
Thread count was 4 (of 4 available processors)

Solution count 1: 1600 

Optimal solution found (tolerance 1.00e-04)
Best objective 1.600000000000e+03, best bound 1.600000000000e+03, gap 0.0000%

Gurobi 7.5.2 (mac64, Python) logging started Sun Nov 18 15:12:51 2018

Academic license - for non-commercial use only
Optimize a model with 40 rows, 200 columns and 400 nonzeros
Variable types: 0 continuous, 200 integer (200 binary)
Coefficient statistics:
  Matrix range     [1e+00, 1e+00]
  Objective range  [1e+02, 1e+100]
  Bounds range     [1e+00, 1e+00]
  RHS range        [1e+00, 1e+00]
Warning: Model contains large objective coefficients
         Consider reformulating model or setting NumericFocus parameter
         to avoid numerical issues.
Presolve removed 20 rows and 100 columns
Presolve time: 0.02s
Presolved: 20 rows, 100 columns, 200 nonzeros
Variable types: 0 continuous, 100 integer (100 binary)
Found heuristic solution: objective 2200.0000000

Root relaxation: objective 2.000000e+03, 14 iterations, 0.00 seconds

    Nodes    |    Current Node    |     Objective Bounds      |     Work
 Expl Unexpl |  Obj  Depth IntInf | Incumbent    BestBd   Gap | It/Node Time

*    0     0               0    2000.0000000 2000.00000  0.00%     -    0s

Explored 0 nodes (14 simplex iterations) in 0.07 seconds
Thread count was 4 (of 4 available processors)

Solution count 2: 2000 2200 

Optimal solution found (tolerance 1.00e-04)
Best objective 2.000000000000e+03, best bound 2.000000000000e+03, gap 0.0000%
